TYPE : Vertex Cover
DIMENSION: 36
EDGE_DATA_SECTION:
0 2
0 10
0 11
0 14
0 20
0 27
0 28
0 29
0 32
1 6
1 11
1 12
1 18
1 19
1 23
1 25
1 26
1 34
2 3
2 7
2 11
2 12
2 17
2 19
2 34
3 6
3 14
3 16
3 18
3 27
3 29
3 30
3 35
4 7
4 21
4 26
4 32
4 33
4 34
5 12
5 14
5 17
5 23
5 24
5 27
5 28
5 30
6 7
6 15
6 20
6 22
6 31
7 17
7 20
7 22
7 23
7 27
7 31
7 33
8 9
8 10
8 16
8 23
8 24
8 25
8 26
8 27
8 34
9 13
9 15
9 17
9 24
9 27
9 30
9 31
9 34
10 11
10 13
10 14
10 16
10 18
10 26
10 29
10 31
10 32
10 34
11 15
11 17
11 18
11 21
11 25
11 33
12 16
12 17
12 18
12 23
12 28
13 20
13 31
13 33
14 16
14 19
14 22
14 23
14 35
15 26
15 28
15 30
15 32
15 34
15 35
16 17
16 19
16 20
16 21
16 27
16 35
17 22
17 31
18 25
18 26
18 28
18 31
18 33
19 24
19 32
20 29
20 32
20 33
21 22
21 23
21 30
21 32
21 34
22 23
22 25
22 27
22 30
22 33
23 25
23 32
24 30
24 31
24 33
25 29
25 34
25 35
26 27
26 30
26 35
27 33
28 32
29 30
29 31
30 35
31 35
32 34
32 35
-1
VERTEX_DEGREE:
9.0 9.0 8.0 9.0 6.0 8.0 7.0 10.0 9.0 9.0 12.0 10.0 8.0 5.0 9.0 9.0 11.0 9.0 10.0 6.0 8.0 8.0 10.0 10.0 7.0 9.0 9.0 10.0 6.0 7.0 10.0 10.0 11.0 9.0 10.0 9.0
VERTEX_COVER:
0 1 2 3 5 7 8 9 10 11 12 14 15 16 18 20 21 22 24 25 26 30 31 32 33 34
EOF
